QBPP_HJ+_35_025_10_4
35 172 309
1 37 45 48 45 29 20 7 36 6 15 10 16 14 2 28 45 42 38 1 12 25 28 22 1 5 48 34 37 42 17 11 50 4 37
    0    0    0    0    0    0    0    0    0    8    0    0    0    0   90    0   72   58    0    0    0   98    0   53    0   41    0   84    0    0    0    0    0    0    0
    0    0    0    0    0    0   55    0    0    0   23   83    0    0    0    0    0    0    0   31    0    9   90    0    0    0    0   91    0    0   65    0   95    0    0
    0    0    0    0    0    0    0   37   41   85    0    6   49    0    0   63    0    0    0    0    0    0    0    0    0    0   12    0    0    0    6    0   25   63    0
    0    0    0    0   71    0    0    0    0    0    0    0   41   56   54    0    0    0    0   17   94    0   40    0    0   83    0   45    0    0    0    0    0   76    0
    0    0    0   71    0   36    0    0    0    0    0    0    9    0    0   63    0    0    0    0   31   71    0   29    0   49    0   31    0    0    0    0    0    4    0
    0    0    0    0   36    0    0    0    0    0   82   70   60    0    0   97    0   81   63    0    0    0    0   56    0    0    0    0   30    2    0    0    0    0    0
    0   55    0    0    0    0    0    0   18    0    0    0    0   47    0   10    0    0    0   20    0    0    0    0   66    0    0    0    0    0    0    0    0    0    0
    0    0   37    0    0    0    0    0    0    0    0    0   71   16    0    0    0   97    0    0    0    3   12    0    0    0    0    0    0    0    7    6    9    0    0
    0    0   41    0    0    0   18    0    0   18    0    0    0   50    0    0    0    0    0   31    0   49   97   90    0    0    0    0    0   91    0   85   96    0   64
    8    0   85    0    0    0    0    0   18    0    0    0    0    0    0    0    2   54    6    0    0    0    0   99    0   42    0    0    0    0   64    0   90    0    0
    0   23    0    0    0   82    0    0    0    0    0    0    0    0   51    0    0    0   14   36   29    0   65    0    0   97    0   92    0    0    0   17    0    0    0
    0   83    6    0    0   70    0    0    0    0    0    0    0    0    0   35    0    0   61   67    0    0   76    0    0    0    0    0    0    0   23   91    0    0   52
    0    0   49   41    9   60    0   71    0    0    0    0    0    0    0    0    0   98   41    0    0    0   76   16    0    0    0   73    0    0    0   53    0    3    0
    0    0    0   56    0    0   47   16   50    0    0    0    0    0    0    0    0    0    0    0    0   70    0    0    0    0    0    0    0    0    0    0    0    0   41
   90    0    0   54    0    0    0    0    0    0   51    0    0    0    0    0    0    0   11   49    0   62   71   13    0    0    0    0    0   13    0    9    0   20   16
    0    0   63    0   63   97   10    0    0    0    0   35    0    0    0    0    0    0    0    0    0    0    0    0    0    0    0    0   41   92    0    0    9    0    0
   72    0    0    0    0    0    0    0    0    2    0    0    0    0    0    0    0    0    0    0   10    0    0   38    0  100    0    0    0    0    0    0    0    0    0
   58    0    0    0    0   81    0   97    0   54    0    0   98    0    0    0    0    0    0   92   98    0    0   29    0    0    0    0   48   47    0    0    0    0    0
    0    0    0    0    0   63    0    0    0    6   14   61   41    0   11    0    0    0    0    0    0    0   15   81    0    0    0    0    0    0   18    0    0    0    0
    0   31    0   17    0    0   20    0   31    0   36   67    0    0   49    0    0   92    0    0    0   13    0    0    0    0    0    0   93   38   79   53    0    0    0
    0    0    0   94   31    0    0    0    0    0   29    0    0    0    0    0   10   98    0    0    0    0   32    0   52    0   48    0    0   50   39    0   55    0    0
   98    9    0    0   71    0    0    3   49    0    0    0    0   70   62    0    0    0    0   13    0    0    0    0    0    0    0    0    0    7   94    0    0    0    0
    0   90    0   40    0    0    0   12   97    0   65   76   76    0   71    0    0    0   15    0   32    0    0   63   78   45   68    0   25   66    0    0    0    0    0
   53    0    0    0   29   56    0    0   90   99    0    0   16    0   13    0   38   29   81    0    0    0   63    0    0   40    0    0   61   77    0    0    0    0    0
    0    0    0    0    0    0   66    0    0    0    0    0    0    0    0    0    0    0    0    0   52    0   78    0    0    0    0   57    0   15    0    0   57   92   86
   41    0    0   83   49    0    0    0    0   42   97    0    0    0    0    0  100    0    0    0    0    0   45   40    0    0    0    0    0    0   20    0    0    0    0
    0    0   12    0    0    0    0    0    0    0    0    0    0    0    0    0    0    0    0    0   48    0   68    0    0    0    0   65    0    0   67    0    0    0   96
   84   91    0   45   31    0    0    0    0    0   92    0   73    0    0    0    0    0    0    0    0    0    0    0   57    0   65    0    0   76    0    0    0    0    0
    0    0    0    0    0   30    0    0    0    0    0    0    0    0    0   41    0   48    0   93    0    0   25   61    0    0    0    0    0   17    0    0    0    0    0
    0    0    0    0    0    2    0    0   91    0    0    0    0    0   13   92    0   47    0   38   50    7   66   77   15    0    0   76   17    0   80    0    0    0    0
    0   65    6    0    0    0    0    7    0   64    0   23    0    0    0    0    0    0   18   79   39   94    0    0    0   20   67    0    0   80    0   91    0    0    0
    0    0    0    0    0    0    0    6   85    0   17   91   53    0    9    0    0    0    0   53    0    0    0    0    0    0    0    0    0    0   91    0   91    0    0
    0   95   25    0    0    0    0    9   96   90    0    0    0    0    0    9    0    0    0    0   55    0    0    0   57    0    0    0    0    0    0   91    0    0    0
    0    0   63   76    4    0    0    0    0    0    0    0    3    0   20    0    0    0    0    0    0    0    0    0   92    0    0    0    0    0    0    0    0    0    0
    0    0    0    0    0    0    0    0   64    0    0   52    0   41   16    0    0    0    0    0    0    0    0    0   86    0   96    0    0    0    0    0    0    0    0
